k = 36;
b = 18;
AtomicConstraints =  [|
1, 4|
	1, 20|
	1, 14|
	2, 4|
	2, 20|
	2, 14|
	3, 4|
	3, 20|
	3, 14|
	5, 6|
	5, 7|
	5, 19|
	5, 9|
	5, 10|
	5, 11|
	5, 12|
	5, 13|
	5, 20|
	5, 14|
	5, 15|
	5, 16|
	5, 17|
	5, 18|
	6, 7|
	6, 19|
	6, 9|
	6, 10|
	6, 11|
	6, 12|
	6, 13|
	6, 20|
	6, 14|
	6, 15|
	6, 16|
	6, 17|
	6, 18|
	7, 19|
	7, 9|
	7, 10|
	7, 11|
	7, 12|
	7, 13|
	7, 20|
	7, 14|
	7, 15|
	7, 16|
	7, 17|
	7, 18|
	8, 5|
	8, 6|
	8, 7|
	8, 19|
	8, 9|
	8, 10|
	8, 11|
	8, 12|
	8, 13|
	8, 20|
	8, 14|
	8, 15|
	8, 16|
	8, 17|
	8, 18|
	21, 19|
	21, 9|
	21, 10|
	21, 11|
	21, 12|
	21, 13|
	21, 20|
	21, 14|
	21, 15|
	21, 16|
	21, 17|
	21, 18|
	21, 26|
	21, 28|
	21, 36|
	21, 23|
	21, 31|
	21, 33|
	21, 30|
	21, 34|
	21, 35|
	19, 20|
	19, 14|
	9, 19|
	9, 11|
	9, 20|
	9, 14|
	10, 19|
	10, 9|
	10, 12|
	10, 13|
	10, 20|
	10, 14|
	11, 20|
	11, 14|
	12, 19|
	12, 11|
	12, 20|
	12, 14|
	13, 19|
	13, 9|
	13, 11|
	13, 12|
	13, 20|
	13, 14|
	26, 14|
	26, 15|
	26, 16|
	26, 17|
	26, 18|
	26, 33|
	28, 14|
	28, 15|
	28, 16|
	28, 17|
	28, 18|
	28, 33|
	36, 20|
	36, 14|
	36, 15|
	36, 16|
	36, 17|
	36, 18|
	23, 34|
	31, 34|
	33, 15|
	24, 35|
	30, 35|];
DisjunctiveConstraints =  [|2, 3, 2, 1|
	5, 24, 5, 6|
	5, 25, 5, 7|
	6, 25, 6, 7|
	21, 17, 21, 35|
	21, 23, 21, 5|
	21, 30, 21, 12|
	12, 29, 12, 11|
	13, 30, 13, 12|
	13, 29, 13, 11|
	16, 15, 16, 17|
	17, 16, 17, 18|
	22, 32, 22, 27|
	28, 15, 28, 33|
	31, 16, 31, 34|
	30, 17, 30, 35|];
SoftAtomicConstraints =  [|
2, 1|
3, 2|
12, 9|
15, 16|
16, 17|
17, 18|
11, 19|
32, 22|
22, 27|
26, 28|
25, 29|
24, 30|
23, 31|
1, 32|
31, 33|
30, 34|
29, 35|
28, 36|];
DirectSuccessors =  [5,
6,
7,
8,
10,
11,
12,
13,
15,
16,
17,
18,
26,
28,
36,
23,
31,
33,
24,
30,
34,
25,
29,
35];
